3 10 7 9 5 10 5 5 9 -1 
3 9 8 -1 -1 2 2 7 0 -1 
3 0 5 4 0 2 10 3 1 -1 
6 1 2 -1 6 6 1 -1 6 -1 
5 5 5 8 1 7 7 10 8 -1 
6 3 5 2 5 4 5 5 -1 -1 
2 10 3 8 10 1 3 10 10 -1 
-1 7 9 1 7 4 -1 5 0 -1 
2 0 4 1 2 7 5 4 3 -1 
4 5 -1 6 9 8 0 9 0 -1 
3 -1 1 6 -1 3 5 2 10 -1 
3 3 10 2 -1 10 10 -1 10 -1 
7 -1 9 3 6 9 7 4 -1 -1 
6 -1 4 7 2 5 1 3 1 -1 
5 -1 7 10 10 0 3 6 1 -1 
4 8 9 10 4 8 -1 10 0 -1 
9 7 -1 0 9 7 3 6 10 -1 
10 6 0 7 4 9 5 5 10 -1 
8 4 4 3 5 7 -1 -1 2 -1 
5 8 1 0 5 10 1 10 6 -1 
